6064.0 321126.0 
5997.0 327246.0 
5980.0 329413.0 
6023.0 322018.0 
6058.0 321982.0 
6007.0 324971.0 
6060.0 321457.0 
6087.0 320732.0 
5975.0 330128.0 
6117.0 319127.0 
6059.0 321599.0 
5977.0 330048.0 
5994.0 327590.0 
6009.0 324819.0 
6066.0 320946.0 
